3 5
141 151 66 
0 7 86 83 5 60 23 12 83 88 11 18 46 1
1 23 39 32 73 48 16 21 40 30 70 3 56 1
2 93 77 93 47 2 18 13 58 82 65 31 46 1
3 53 50 37 96 14 51 34 31 36 69 33 69 3
4 54 31 23 81 99 24 90 40 4 16 67 46 1
